(declare-fun temp1244_1 () (_ BitVec 64))
(declare-fun var465453 () (_ BitVec 64))
(declare-fun temp1244_2 () (_ BitVec 64))
(declare-fun var465469 () (_ BitVec 64))
(declare-fun temp1244_3 () (_ BitVec 64))
(declare-fun var465473 () (_ BitVec 64))
(declare-fun var465478 () (_ BitVec 64))
(declare-fun var465479 () (_ BitVec 64))
(declare-fun ARGNAME_input_NAMEEND_DIM () (_ BitVec 64))
(declare-fun var465480 () (_ BitVec 64))
(declare-fun var465483 () (_ BitVec 64))
(declare-fun var465484 () (_ BitVec 64))
(declare-fun var465485 () (_ BitVec 64))
(declare-fun temp1244_4 () (_ BitVec 64))
(declare-fun var465486 () (_ BitVec 64))
(declare-fun temp1244_5 () (_ BitVec 64))
(declare-fun var465487 () (_ BitVec 64))
(declare-fun temp1244_6 () (_ BitVec 64))
(declare-fun var465488 () (_ BitVec 64))
(declare-fun temp1244_7 () (_ BitVec 64))
(declare-fun var465522 () (_ BitVec 64))
(declare-fun temp1244_8 () (_ BitVec 64))
(declare-fun temp1244_10 () (_ BitVec 64))
(declare-fun temp1244_9 () (_ BitVec 64))
(declare-fun temp1244_12 () (_ BitVec 64))
(declare-fun temp1244_11 () (_ BitVec 64))
(declare-fun temp1244_13 () (_ BitVec 64))
(declare-fun var863614 () (_ BitVec 64))
(declare-fun temp1244_14 () (_ BitVec 64))
(declare-fun var863635 () (_ BitVec 64))
(declare-fun var997081 () (_ BitVec 64))
(declare-fun var997085 () (_ BitVec 64))
(declare-fun var997343 () (_ BitVec 64))
(declare-fun var997345 () (_ BitVec 64))
(declare-fun temp1244_15 () (_ BitVec 64))
(declare-fun ARGNAME_weight_NAMEEND_DIM () (_ BitVec 64))
(declare-fun var997372 () (_ BitVec 64))
(declare-fun temp1244_16 () (_ BitVec 64))
(declare-fun var997373 () (_ BitVec 64))
(declare-fun temp1244_17 () (_ BitVec 64))
(declare-fun temp1244_18 () (_ BitVec 64))
(declare-fun ARGNAME_groups_NAMEEND () (_ BitVec 64))
(declare-fun var997418 () (_ BitVec 64))
(declare-fun temp1244_19 () (_ BitVec 64))
(declare-fun ARGNAME_stride_NAMEEND_LEN () (_ BitVec 64))
(declare-fun ARGNAME_padding_NAMEEND_LEN () (_ BitVec 64))
(declare-fun ARGNAME_dilation_NAMEEND_LEN () (_ BitVec 64))
(declare-fun var1716000 () (_ BitVec 64))
(declare-fun temp1244_20 () (_ BitVec 64))
(declare-fun temp1244_21 () (_ BitVec 64))
(declare-fun ARGNAME_padding_NAMEEND_VAL () (Array (_ BitVec 64) (_ BitVec 64)))
(declare-fun temp1244_22 () (_ BitVec 64))
(declare-fun temp1244_23 () (_ BitVec 64))
(declare-fun temp1244_24 () (_ BitVec 64))
(declare-fun temp1244_25 () (_ BitVec 64))
(declare-fun temp1244_26 () (_ BitVec 64))
(declare-fun temp1244_27 () (_ BitVec 64))
(declare-fun temp1244_28 () (_ BitVec 64))
(declare-fun temp1244_29 () (_ BitVec 64))
(declare-fun temp1244_30 () (_ BitVec 64))
(declare-fun temp1244_31 () (_ BitVec 64))
(declare-fun temp1244_32 () (_ BitVec 64))
(declare-fun temp1244_33 () (_ BitVec 64))
(declare-fun temp1244_34 () (_ BitVec 64))
(declare-fun temp1244_35 () (_ BitVec 64))
(declare-fun temp1244_36 () (_ BitVec 64))
(declare-fun temp1244_37 () (_ BitVec 64))
(declare-fun temp1244_38 () (_ BitVec 64))
(declare-fun temp1244_39 () (_ BitVec 64))
(declare-fun temp1244_40 () (_ BitVec 64))
(declare-fun temp1244_41 () (_ BitVec 64))
(declare-fun temp1244_42 () (_ BitVec 64))
(declare-fun temp1244_43 () (_ BitVec 64))
(declare-fun temp1244_44 () (_ BitVec 64))
(declare-fun temp1244_45 () (_ BitVec 64))
(declare-fun temp1244_46 () (_ BitVec 64))
(declare-fun temp1244_47 () (_ BitVec 64))
(declare-fun temp1244_48 () (_ BitVec 64))
(declare-fun temp1244_49 () (_ BitVec 64))
(declare-fun temp1244_50 () (_ BitVec 64))
(declare-fun temp1244_51 () (_ BitVec 64))
(declare-fun temp1244_52 () (_ BitVec 64))
(declare-fun temp1244_53 () (_ BitVec 64))
(declare-fun temp1244_54 () (_ BitVec 64))
(declare-fun temp1244_55 () (_ BitVec 64))
(declare-fun temp1244_56 () (_ BitVec 64))
(declare-fun temp1244_57 () (_ BitVec 64))
(declare-fun temp1244_58 () (_ BitVec 64))
(declare-fun temp1244_59 () (_ BitVec 64))
(declare-fun temp1244_60 () (_ BitVec 64))
(declare-fun temp1244_61 () (_ BitVec 64))
(declare-fun var1716002 () (_ BitVec 64))
(declare-fun temp1244_62 () (_ BitVec 64))
(declare-fun temp1244_63 () (_ BitVec 64))
(declare-fun temp1244_64 () (_ BitVec 64))
(declare-fun ARGNAME_stride_NAMEEND_VAL () (Array (_ BitVec 64) (_ BitVec 64)))
(declare-fun temp1244_65 () (_ BitVec 64))
(declare-fun temp1244_66 () (_ BitVec 64))
(declare-fun temp1244_67 () (_ BitVec 64))
(declare-fun temp1244_68 () (_ BitVec 64))
(declare-fun temp1244_69 () (_ BitVec 64))
(declare-fun temp1244_70 () (_ BitVec 64))
(declare-fun temp1244_71 () (_ BitVec 64))
(declare-fun temp1244_72 () (_ BitVec 64))
(declare-fun temp1244_73 () (_ BitVec 64))
(declare-fun temp1244_74 () (_ BitVec 64))
(declare-fun temp1244_75 () (_ BitVec 64))
(declare-fun temp1244_76 () (_ BitVec 64))
(declare-fun temp1244_77 () (_ BitVec 64))
(declare-fun temp1244_78 () (_ BitVec 64))
(declare-fun temp1244_79 () (_ BitVec 64))
(declare-fun temp1244_80 () (_ BitVec 64))
(declare-fun temp1244_81 () (_ BitVec 64))
(declare-fun temp1244_82 () (_ BitVec 64))
(declare-fun temp1244_83 () (_ BitVec 64))
(declare-fun temp1244_84 () (_ BitVec 64))
(declare-fun temp1244_85 () (_ BitVec 64))
(declare-fun temp1244_86 () (_ BitVec 64))
(declare-fun temp1244_87 () (_ BitVec 64))
(declare-fun temp1244_88 () (_ BitVec 64))
(declare-fun temp1244_89 () (_ BitVec 64))
(declare-fun temp1244_90 () (_ BitVec 64))
(declare-fun temp1244_91 () (_ BitVec 64))
(declare-fun temp1244_92 () (_ BitVec 64))
(declare-fun temp1244_93 () (_ BitVec 64))
(declare-fun temp1244_94 () (_ BitVec 64))
(declare-fun temp1244_95 () (_ BitVec 64))
(declare-fun temp1244_96 () (_ BitVec 64))
(declare-fun temp1244_97 () (_ BitVec 64))
(declare-fun temp1244_98 () (_ BitVec 64))
(declare-fun temp1244_99 () (_ BitVec 64))
(declare-fun temp1244_100 () (_ BitVec 64))
(declare-fun temp1244_101 () (_ BitVec 64))
(declare-fun temp1244_102 () (_ BitVec 64))
(declare-fun temp1244_103 () (_ BitVec 64))
(declare-fun temp1244_104 () (_ BitVec 64))
(declare-fun var1716023 () (_ BitVec 64))
(declare-fun temp1244_105 () (_ BitVec 64))
(declare-fun temp1244_106 () (_ BitVec 64))
(declare-fun var1704114 () (_ BitVec 64))
(declare-fun temp1244_107 () (_ BitVec 64))
(declare-fun temp1244_108 () (_ BitVec 64))
(declare-fun ARGNAME_weight_NAMEEND_DIMSIZE
             ()
             (Array (_ BitVec 64) (_ BitVec 64)))
(declare-fun temp1244_109 () (_ BitVec 64))
(declare-fun temp1244_110 () (_ BitVec 64))
(declare-fun temp1244_111 () (_ BitVec 64))
(declare-fun temp1244_112 () (_ BitVec 64))
(declare-fun temp1244_113 () (_ BitVec 64))
(declare-fun temp1244_114 () (_ BitVec 64))
(declare-fun temp1244_115 () (_ BitVec 64))
(declare-fun temp1244_116 () (_ BitVec 64))
(declare-fun temp1244_117 () (_ BitVec 64))
(declare-fun temp1244_118 () (_ BitVec 64))
(declare-fun temp1244_119 () (_ BitVec 64))
(declare-fun temp1244_120 () (_ BitVec 64))
(declare-fun temp1244_121 () (_ BitVec 64))
(declare-fun temp1244_122 () (_ BitVec 64))
(declare-fun temp1244_123 () (_ BitVec 64))
(declare-fun temp1244_124 () (_ BitVec 64))
(declare-fun temp1244_126 () (_ BitVec 64))
(declare-fun temp1244_127 () (_ BitVec 64))
(declare-fun temp1244_125 () (_ BitVec 64))
(declare-fun var1716068 () (_ BitVec 64))
(declare-fun temp1244_128 () (_ BitVec 64))
(declare-fun temp1244_129 () (_ BitVec 64))
(declare-fun temp1244_131 () (_ BitVec 64))
(declare-fun temp1244_132 () (_ BitVec 64))
(declare-fun temp1244_130 () (_ BitVec 64))
(declare-fun var1716090 () (_ BitVec 64))
(declare-fun temp1244_133 () (_ BitVec 64))
(declare-fun var1716091 () (_ BitVec 64))
(declare-fun temp1244_134 () (_ BitVec 64))
(declare-fun var1716110 () (_ BitVec 64))
(declare-fun temp1244_135 () (_ BitVec 64))
(declare-fun var1716111 () (_ BitVec 64))
(declare-fun temp1244_136 () (_ BitVec 64))
(declare-fun temp1244_137 () (_ BitVec 64))
(declare-fun var1705002 () (_ BitVec 64))
(declare-fun temp1244_139 () (_ BitVec 64))
(declare-fun temp1244_140 () (_ BitVec 64))
(declare-fun temp1244_138 () (_ BitVec 64))
(declare-fun var1716123 () (_ BitVec 64))
(declare-fun temp1244_141 () (_ BitVec 64))
(declare-fun temp1244_143 () (_ BitVec 64))
(declare-fun temp1244_144 () (_ BitVec 64))
(declare-fun temp1244_142 () (_ BitVec 64))
(declare-fun temp1244_145 () (_ BitVec 64))
(declare-fun var1979241 () (_ BitVec 64))
(declare-fun temp1244_146 () (_ BitVec 64))
(declare-fun var1716281 () (_ BitVec 64))
(declare-fun temp1244_147 () (_ BitVec 64))
(declare-fun var997490 () (_ BitVec 64))
(declare-fun temp1244_148 () (_ BitVec 64))
(declare-fun temp1244_149 () (_ BitVec 64))
(declare-fun var997620 () (_ BitVec 64))
(declare-fun var3486185 () (_ BitVec 64))
(declare-fun temp1244_150 () (_ BitVec 64))
(declare-fun var3880579 () (_ BitVec 64))
(declare-fun var3880581 () (_ BitVec 64))
(declare-fun var3946124 () (_ BitVec 64))
(declare-fun var3946125 () (_ BitVec 64))
(declare-fun temp1244_152 () (_ BitVec 64))
(declare-fun temp1244_151 () (_ BitVec 64))
(declare-fun temp1244_154 () (_ BitVec 64))
(declare-fun temp1244_153 () (_ BitVec 64))
(declare-fun temp1244_155 () (_ BitVec 64))
(assert (= temp1244_1 #x0000000000000003))
(assert (= var465453 temp1244_1))
(assert (= temp1244_2 #x0000000000000001))
(assert (= var465469 (bvadd var465453 temp1244_2)))
(assert (= temp1244_3 #x0000000000000002))
(assert (= var465473 (bvadd var465453 temp1244_3)))
(assert (= var465478 var465473))
(assert (= var465479
   (ite (= ARGNAME_input_NAMEEND_DIM var465478)
        #x0000000000000001
        #x0000000000000000)))
(assert (= var465480 var465479))
(assert (= var465483 var465469))
(assert (= var465484
   (ite (distinct ARGNAME_input_NAMEEND_DIM var465483)
        #x0000000000000001
        #x0000000000000000)))
(assert (= var465485 var465480))
(assert (= temp1244_4 #x0000000000000001))
(assert (= var465486 (bvand var465485 temp1244_4)))
(assert (= temp1244_5 #x0000000000000000))
(assert (= var465487
   (ite (= var465486 temp1244_5) #x0000000000000001 #x0000000000000000)))
(assert (= var465488 (bvand var465484 var465487)))
(assert (= temp1244_6 #x0000000000000000))
(assert (= var465488 temp1244_6))
(assert (= temp1244_7 #x0000000000000000))
(assert (= var465522
   (ite (= var465485 temp1244_7) #x0000000000000001 #x0000000000000000)))
(assert (= temp1244_8 #x0000000000000001))
(assert (= var465522 temp1244_8))
(assert (= temp1244_10 #x0000000000000000))
(assert (= temp1244_9 temp1244_10))
(assert (= temp1244_12 #x0000000000000003))
(assert (= temp1244_11 temp1244_12))
(assert (= temp1244_13 #x0000000000000000))
(assert (= var863614 temp1244_13))
(assert (= temp1244_14 #x0000000000000001))
(assert (= var863635 temp1244_14))
(assert (= var997081 var863614))
(assert (= var997085 var863635))
(assert (= var997343 var997081))
(assert (= var997345 var997085))
(assert (= temp1244_15 #xfffffffffffffffe))
(assert (= var997372 (bvadd ARGNAME_weight_NAMEEND_DIM temp1244_15)))
(assert (= temp1244_16 #x0000000000000003))
(assert (= var997373
   (ite (bvslt ARGNAME_weight_NAMEEND_DIM temp1244_16)
        #x0000000000000001
        #x0000000000000000)))
(assert (= temp1244_17 #x0000000000000000))
(assert (= var997373 temp1244_17))
(assert (= temp1244_18 #x0000000000000001))
(assert (= var997418
   (ite (bvslt ARGNAME_groups_NAMEEND temp1244_18)
        #x0000000000000001
        #x0000000000000000)))
(assert (= temp1244_19 #x0000000000000000))
(assert (= var997418 temp1244_19))
(assert (= ARGNAME_stride_NAMEEND_LEN var997372))
(assert (= ARGNAME_padding_NAMEEND_LEN var997372))
(assert (= ARGNAME_dilation_NAMEEND_LEN var997372))
(assert (= var1716000 var997343))
(assert (= temp1244_20 #x0000000000000000))
(assert (= temp1244_21 temp1244_20))
(assert (= temp1244_22 (select ARGNAME_padding_NAMEEND_VAL temp1244_21)))
(assert (= temp1244_23 #x0000000000000001))
(assert (= temp1244_24 temp1244_23))
(assert (= temp1244_25 (select ARGNAME_padding_NAMEEND_VAL temp1244_24)))
(assert (= temp1244_26 #x0000000000000002))
(assert (= temp1244_27 temp1244_26))
(assert (= temp1244_28 (select ARGNAME_padding_NAMEEND_VAL temp1244_27)))
(assert (= temp1244_29 #x0000000000000003))
(assert (= temp1244_30 temp1244_29))
(assert (= temp1244_31 (select ARGNAME_padding_NAMEEND_VAL temp1244_30)))
(assert (= temp1244_32 #x0000000000000004))
(assert (= temp1244_33 temp1244_32))
(assert (= temp1244_34 (select ARGNAME_padding_NAMEEND_VAL temp1244_33)))
(assert (= temp1244_35 #x0000000000000005))
(assert (= temp1244_36 temp1244_35))
(assert (= temp1244_37 (select ARGNAME_padding_NAMEEND_VAL temp1244_36)))
(assert (= temp1244_38 #x0000000000000000))
(assert (= temp1244_39 #x0000000000000000))
(assert (= temp1244_40 temp1244_39))
(assert (= temp1244_41 (select ARGNAME_padding_NAMEEND_VAL temp1244_40)))
(assert (= temp1244_42 #x0000000000000000))
(assert (= temp1244_43 #x0000000000000001))
(assert (= temp1244_44 temp1244_43))
(assert (= temp1244_45 (select ARGNAME_padding_NAMEEND_VAL temp1244_44)))
(assert (= temp1244_46 #x0000000000000000))
(assert (= temp1244_47 #x0000000000000002))
(assert (= temp1244_48 temp1244_47))
(assert (= temp1244_49 (select ARGNAME_padding_NAMEEND_VAL temp1244_48)))
(assert (= temp1244_50 #x0000000000000000))
(assert (= temp1244_51 #x0000000000000003))
(assert (= temp1244_52 temp1244_51))
(assert (= temp1244_53 (select ARGNAME_padding_NAMEEND_VAL temp1244_52)))
(assert (= temp1244_54 #x0000000000000000))
(assert (= temp1244_55 #x0000000000000004))
(assert (= temp1244_56 temp1244_55))
(assert (= temp1244_57 (select ARGNAME_padding_NAMEEND_VAL temp1244_56)))
(assert (= temp1244_58 #x0000000000000000))
(assert (= temp1244_59 #x0000000000000005))
(assert (= temp1244_60 temp1244_59))
(assert (= temp1244_61 (select ARGNAME_padding_NAMEEND_VAL temp1244_60)))
(assert (= var1716002
   (ite (and true
             (bvslt temp1244_41 temp1244_38)
             (bvslt temp1244_45 temp1244_42)
             (bvslt temp1244_49 temp1244_46)
             (bvslt temp1244_53 temp1244_50)
             (bvslt temp1244_57 temp1244_54)
             (bvslt temp1244_61 temp1244_58))
        #x0000000000000001
        #x0000000000000000)))
(assert (= temp1244_62 #x0000000000000000))
(assert (= var1716002 temp1244_62))
(assert (= temp1244_63 #x0000000000000000))
(assert (= temp1244_64 temp1244_63))
(assert (= temp1244_65 (select ARGNAME_stride_NAMEEND_VAL temp1244_64)))
(assert (= temp1244_66 #x0000000000000001))
(assert (= temp1244_67 temp1244_66))
(assert (= temp1244_68 (select ARGNAME_stride_NAMEEND_VAL temp1244_67)))
(assert (= temp1244_69 #x0000000000000002))
(assert (= temp1244_70 temp1244_69))
(assert (= temp1244_71 (select ARGNAME_stride_NAMEEND_VAL temp1244_70)))
(assert (= temp1244_72 #x0000000000000003))
(assert (= temp1244_73 temp1244_72))
(assert (= temp1244_74 (select ARGNAME_stride_NAMEEND_VAL temp1244_73)))
(assert (= temp1244_75 #x0000000000000004))
(assert (= temp1244_76 temp1244_75))
(assert (= temp1244_77 (select ARGNAME_stride_NAMEEND_VAL temp1244_76)))
(assert (= temp1244_78 #x0000000000000005))
(assert (= temp1244_79 temp1244_78))
(assert (= temp1244_80 (select ARGNAME_stride_NAMEEND_VAL temp1244_79)))
(assert (= temp1244_81 #x0000000000000000))
(assert (= temp1244_82 #x0000000000000000))
(assert (= temp1244_83 temp1244_82))
(assert (= temp1244_84 (select ARGNAME_stride_NAMEEND_VAL temp1244_83)))
(assert (= temp1244_85 #x0000000000000000))
(assert (= temp1244_86 #x0000000000000001))
(assert (= temp1244_87 temp1244_86))
(assert (= temp1244_88 (select ARGNAME_stride_NAMEEND_VAL temp1244_87)))
(assert (= temp1244_89 #x0000000000000000))
(assert (= temp1244_90 #x0000000000000002))
(assert (= temp1244_91 temp1244_90))
(assert (= temp1244_92 (select ARGNAME_stride_NAMEEND_VAL temp1244_91)))
(assert (= temp1244_93 #x0000000000000000))
(assert (= temp1244_94 #x0000000000000003))
(assert (= temp1244_95 temp1244_94))
(assert (= temp1244_96 (select ARGNAME_stride_NAMEEND_VAL temp1244_95)))
(assert (= temp1244_97 #x0000000000000000))
(assert (= temp1244_98 #x0000000000000004))
(assert (= temp1244_99 temp1244_98))
(assert (= temp1244_100 (select ARGNAME_stride_NAMEEND_VAL temp1244_99)))
(assert (= temp1244_101 #x0000000000000000))
(assert (= temp1244_102 #x0000000000000005))
(assert (= temp1244_103 temp1244_102))
(assert (= temp1244_104 (select ARGNAME_stride_NAMEEND_VAL temp1244_103)))
(assert (= var1716023
   (ite (and true
             (bvsle temp1244_84 temp1244_81)
             (bvsle temp1244_88 temp1244_85)
             (bvsle temp1244_92 temp1244_89)
             (bvsle temp1244_96 temp1244_93)
             (bvsle temp1244_100 temp1244_97)
             (bvsle temp1244_104 temp1244_101))
        #x0000000000000001
        #x0000000000000000)))
(assert (= temp1244_105 #x0000000000000000))
(assert (= var1716023 temp1244_105))
(assert (= temp1244_106 #x0000000000000000))
(assert (= var1704114 temp1244_106))
(assert (= temp1244_107 #x0000000000000000))
(assert (= temp1244_108 temp1244_107))
(assert (= temp1244_109 (select ARGNAME_weight_NAMEEND_DIMSIZE temp1244_108)))
(assert (= temp1244_110 #x0000000000000001))
(assert (= temp1244_111 temp1244_110))
(assert (= temp1244_112 (select ARGNAME_weight_NAMEEND_DIMSIZE temp1244_111)))
(assert (= temp1244_113 #x0000000000000002))
(assert (= temp1244_114 temp1244_113))
(assert (= temp1244_115 (select ARGNAME_weight_NAMEEND_DIMSIZE temp1244_114)))
(assert (= temp1244_116 #x0000000000000003))
(assert (= temp1244_117 temp1244_116))
(assert (= temp1244_118 (select ARGNAME_weight_NAMEEND_DIMSIZE temp1244_117)))
(assert (= temp1244_119 #x0000000000000004))
(assert (= temp1244_120 temp1244_119))
(assert (= temp1244_121 (select ARGNAME_weight_NAMEEND_DIMSIZE temp1244_120)))
(assert (= temp1244_122 #x0000000000000005))
(assert (= temp1244_123 temp1244_122))
(assert (= temp1244_124 (select ARGNAME_weight_NAMEEND_DIMSIZE temp1244_123)))
(assert (= temp1244_126 var1704114))
(assert (= temp1244_127 (select ARGNAME_weight_NAMEEND_DIMSIZE temp1244_126)))
(assert (= temp1244_125 temp1244_127))
(assert (= var1716068
   (ite (bvslt temp1244_125 ARGNAME_groups_NAMEEND)
        #x0000000000000001
        #x0000000000000000)))
(assert (= temp1244_128 #x0000000000000000))
(assert (= var1716068 temp1244_128))
(assert (= temp1244_129 #x0000000000000000))
(assert (= var1704114 temp1244_129))
(assert (= temp1244_131 var1704114))
(assert (= temp1244_132 (select ARGNAME_weight_NAMEEND_DIMSIZE temp1244_131)))
(assert (= temp1244_130 temp1244_132))
(assert (= var1716090 (bvsmod temp1244_130 ARGNAME_groups_NAMEEND)))
(assert (= temp1244_133 #x0000000000000000))
(assert (= var1716091
   (ite (= var1716090 temp1244_133) #x0000000000000001 #x0000000000000000)))
(assert (= temp1244_134 #x0000000000000001))
(assert (= var1716091 temp1244_134))
(assert (= var1716110 var1716000))
(assert (= temp1244_135 #x0000000000000000))
(assert (= var1716111
   (ite (= var1716110 temp1244_135) #x0000000000000001 #x0000000000000000)))
(assert (= temp1244_136 #x0000000000000001))
(assert (= var1716111 temp1244_136))
(assert (= temp1244_137 #x0000000000000001))
(assert (= var1705002 temp1244_137))
(assert (= temp1244_139 var1705002))
(assert (= temp1244_140 (select ARGNAME_weight_NAMEEND_DIMSIZE temp1244_139)))
(assert (= temp1244_138 temp1244_140))
(assert (= var1716123 (bvmul ARGNAME_groups_NAMEEND temp1244_138)))
(assert (= temp1244_141 #x0000000000000000))
(assert (= var1704114 temp1244_141))
(assert (= temp1244_143 var1704114))
(assert (= temp1244_144 (select ARGNAME_weight_NAMEEND_DIMSIZE temp1244_143)))
(assert (= temp1244_142 temp1244_144))
(assert (= temp1244_145 #x0000000000000002))
(assert (= var1979241 temp1244_145))
(assert (= temp1244_146 #x0000000000000001))
(assert (= var1716281 temp1244_146))
(assert (= temp1244_147 #x0000000000000003))
(assert (= var997490
   (ite (= ARGNAME_weight_NAMEEND_DIM temp1244_147)
        #x0000000000000001
        #x0000000000000000)))
(assert (= temp1244_148 #x0000000000000001))
(assert (= var997490 temp1244_148))
(assert (= temp1244_149 #x0000000000000001))
(assert (= var997620 temp1244_149))
(assert (= var3486185 var997620))
(assert (= temp1244_150 #x0000000000000002))
(assert (= var3880579 temp1244_150))
(assert (= var3880581 (bvsub ARGNAME_weight_NAMEEND_DIM var3880579)))
(assert (= var3946124 var3880579))
(assert (= var3946125 var3880581))
(assert (= temp1244_152 #xffffffffffffffff))
(assert (= temp1244_151 temp1244_152))
(assert (= temp1244_154 #xffffffffffffffff))
(assert (= temp1244_153 temp1244_154))
(assert (= temp1244_155 #x0000000000000001))
(assert (= var997490 temp1244_155))
(model-add temp1244_1 () (_ BitVec 64) #x0000000000000003)
(model-add var465453 () (_ BitVec 64) #x0000000000000003)
(model-add temp1244_2 () (_ BitVec 64) #x0000000000000001)
(model-add var465469 () (_ BitVec 64) #x0000000000000004)
(model-add temp1244_3 () (_ BitVec 64) #x0000000000000002)
(model-add var465473 () (_ BitVec 64) #x0000000000000005)
(model-add var465478 () (_ BitVec 64) #x0000000000000005)
(model-add var465479
           ()
           (_ BitVec 64)
           (ite (= ARGNAME_input_NAMEEND_DIM #x0000000000000005)
                #x0000000000000001
                #x0000000000000000))
(model-add var465480
           ()
           (_ BitVec 64)
           (ite (= ARGNAME_input_NAMEEND_DIM #x0000000000000005)
                #x0000000000000001
                #x0000000000000000))
(model-add var465483 () (_ BitVec 64) #x0000000000000004)
(model-add var465484
           ()
           (_ BitVec 64)
           (ite (= ARGNAME_input_NAMEEND_DIM #x0000000000000004)
                #x0000000000000000
                #x0000000000000001))
(model-add var465485
           ()
           (_ BitVec 64)
           (ite (= ARGNAME_input_NAMEEND_DIM #x0000000000000005)
                #x0000000000000001
                #x0000000000000000))
(model-add temp1244_4 () (_ BitVec 64) #x0000000000000001)
(model-add var465486
           ()
           (_ BitVec 64)
           (concat #b000000000000000000000000000000000000000000000000000000000000000
                   (ite (= ARGNAME_input_NAMEEND_DIM #x0000000000000005)
                        #b1
                        #b0)))
(model-add temp1244_5 () (_ BitVec 64) #x0000000000000000)
(model-add var465487
           ()
           (_ BitVec 64)
           (ite (= ARGNAME_input_NAMEEND_DIM #x0000000000000005)
                #x0000000000000000
                #x0000000000000001))
(model-add temp1244_6 () (_ BitVec 64) #x0000000000000000)
(model-add var465488 () (_ BitVec 64) #x0000000000000000)






